1 4 0
h 8 -6 0
1 4 0
h 18 -16 0
h 4 15 0
h 12 4 0
h 11 -13 0
h -6 12 0
h -12 -4 0
h 5 -20 0
h -16 4 0
h -13 -3 0
h 3 -11 0
h -5 -7 0
h 12 -6 0
h 15 4 0
h 16 -17 0
1 -15 0
h 6 -5 0
h -5 -12 0
h 12 -18 0
h 13 -3 0
1 -8 0
h 12 13 -4 0
h -5 7 0
